
Gurobi 10.0.3 (linux64, gurobi_cl) logging started Thu Nov  9 11:51:24 2023

Set parameter Username
Set parameter TimeLimit to value 3600
Set parameter LogFile to value "RCPSP_1284.log"
Set parameter Threads to value 32
Academic license - for non-commercial use only - expires 2024-11-06
Using license file /home/jrivera6/gurobi-licenses/v1003/compute-0-36/gurobi.lic

Gurobi Optimizer version 10.0.3 build v10.0.3rc0 (linux64)
Copyright (c) 2023, Gurobi Optimization, LLC

Read MPS format model from file RCPSP_1284.mps
Reading time = 0.07 seconds
RCPSP_1284: 42975 rows, 17020 columns, 134609 nonzeros

CPU model: Intel(R) Xeon(R) Gold 6130 CPU @ 2.10GHz, instruction set [SSE2|AVX|AVX2|AVX512]
Thread count: 32 physical cores, 32 logical processors, using up to 32 threads

Optimize a model with 42975 rows, 17020 columns and 134609 nonzeros
Model fingerprint: 0x4e10a1c7
Variable types: 92 continuous, 16928 integer (16928 binary)
Coefficient statistics:
  Matrix range     [1e+00, 5e+02]
  Objective range  [1e+00, 1e+00]
  Bounds range     [1e+00, 1e+00]
  RHS range        [1e+00, 5e+02]
Presolve removed 8488 rows and 1829 columns (presolve time = 5s) ...
Presolve removed 13854 rows and 3714 columns
Presolve time: 9.46s
Presolved: 29121 rows, 13306 columns, 94748 nonzeros
Variable types: 91 continuous, 13215 integer (13215 binary)

Root simplex log...

Iteration    Objective       Primal Inf.    Dual Inf.      Time
       0    8.5000000e+01   1.054331e+05   0.000000e+00     10s
    4473    8.5000000e+01   0.000000e+00   0.000000e+00     10s

Root relaxation: objective 8.500000e+01, 4473 iterations, 0.19 seconds (0.06 work units)
Total elapsed time = 10.54s

    Nodes    |    Current Node    |     Objective Bounds      |     Work
 Expl Unexpl |  Obj  Depth IntInf | Incumbent    BestBd   Gap | It/Node Time

     0     0   85.00000    0   31          -   85.00000      -     -   11s
     0     0   90.00000    0   25          -   90.00000      -     -   11s
     0     0   90.00000    0  373          -   90.00000      -     -   24s
     0     0   90.00000    0  371          -   90.00000      -     -   25s
     0     0   90.00000    0  364          -   90.00000      -     -   25s
     0     0   90.00000    0   28          -   90.00000      -     -   32s
     0     0   90.00000    0   44          -   90.00000      -     -   35s
     0     0   90.00000    0   27          -   90.00000      -     -   42s
     0     0   90.00000    0  154          -   90.00000      -     -   46s
     0     0   90.00000    0  135          -   90.00000      -     -   49s
     0     0   90.00000    0  197          -   90.00000      -     -   49s
     0     0   90.00000    0  115          -   90.00000      -     -   55s
     0     0   90.00000    0  115          -   90.00000      -     -   56s
     0     0   90.00000    0    4          -   90.00000      -     -   63s
     0     0   90.00000    0   12          -   90.00000      -     -   63s
     0     0   90.00000    0   12          -   90.00000      -     -   65s
H    0     0                     471.0000000   90.00000  80.9%     -   67s
     0     0   90.00000    0   11  471.00000   90.00000  80.9%     -   67s
H    0     0                     104.0000000   90.00000  13.5%     -   75s
     0     0   90.00000    0   71  104.00000   90.00000  13.5%     -  106s
     0     0   90.00000    0   69  104.00000   90.00000  13.5%     -  106s
     0     0   90.00000    0  318  104.00000   90.00000  13.5%     -  118s
     0     0   90.00000    0  321  104.00000   90.00000  13.5%     -  119s
H    0     0                     103.0000000   90.00000  12.6%     -  123s
H    0     0                      99.0000000   90.00000  9.09%     -  123s
     0     0   90.00000    0    6   99.00000   90.00000  9.09%     -  124s
H    0     0                      98.0000000   90.00000  8.16%     -  125s
     0     0   90.00000    0   30   98.00000   90.00000  8.16%     -  127s
H    0     0                      96.0000000   90.00000  6.25%     -  128s
     0     0   90.00000    0    8   96.00000   90.00000  6.25%     -  131s
     0     0   90.00000    0   19   96.00000   90.00000  6.25%     -  133s
     0     0   90.00000    0   77   96.00000   90.00000  6.25%     -  134s
     0     0   90.00000    0   15   96.00000   90.00000  6.25%     -  136s
     0     0   90.00000    0   15   96.00000   90.00000  6.25%     -  138s
     0     0   90.00000    0   53   96.00000   90.00000  6.25%     -  168s
     0     0   90.00000    0   57   96.00000   90.00000  6.25%     -  169s
     0     0   90.00000    0  281   96.00000   90.00000  6.25%     -  182s
     0     0   90.00000    0  263   96.00000   90.00000  6.25%     -  183s
     0     0   90.00000    0   12   96.00000   90.00000  6.25%     -  186s
     0     0   90.00000    0   13   96.00000   90.00000  6.25%     -  187s
     0     0   90.00000    0   21   96.00000   90.00000  6.25%     -  188s
     0     0   90.00000    0   67   96.00000   90.00000  6.25%     -  189s
H    0     0                      95.0000000   90.00000  5.26%     -  191s
     0     0   90.00000    0   27   95.00000   90.00000  5.26%     -  191s
     0     0   90.00000    0  170   95.00000   90.00000  5.26%     -  193s
     0     0   90.00000    0   30   95.00000   90.00000  5.26%     -  195s
     0     0   90.00000    0   30   95.00000   90.00000  5.26%     -  197s
     0     0   90.00000    0   24   95.00000   90.00000  5.26%     -  197s
     0     2   90.00000    0   24   95.00000   90.00000  5.26%     -  206s
     3     8   90.00000    2   27   95.00000   90.00000  5.26%   219  210s
    15    30   90.00000    4   75   95.00000   90.00000  5.26%   139  217s
    30    55   90.00000    5   80   95.00000   90.00000  5.26%   194  227s
H   34    55                      94.0000000   90.00000  4.26%   175  228s
    60    68   90.00000    6   81   94.00000   90.00000  4.26%   239  235s
H   96    86                      93.0000000   90.00000  3.23%   192  271s
H  100    86                      92.0000000   90.00000  2.17%   185  271s
   128    56   90.00000    7   97   92.00000   90.00000  2.17%   165  280s
   208    31   90.00000    8   96   92.00000   90.00000  2.17%   109  295s
   233    30   90.00000    9   84   92.00000   90.00000  2.17%   117  307s
   264    50   90.00000   10   17   92.00000   90.00000  2.17%   140  316s
   333    82   90.00000   12   19   92.00000   90.00000  2.17%   151  322s
   380   110   90.16667   14  137   92.00000   90.00000  2.17%   148  325s
   485   110   91.00000   16  230   92.00000   90.00000  2.17%   137  332s
   542   129   91.00000   17  219   92.00000   90.00000  2.17%   136  337s
   597   142 infeasible   18        92.00000   90.00000  2.17%   134  341s
   660   186   91.00000   17  219   92.00000   90.00000  2.17%   131  346s
   725   221   91.00000   18  214   92.00000   90.00000  2.17%   127  350s
   813   260 infeasible   16        92.00000   90.00000  2.17%   121  357s
   898   319   90.00000   14   41   92.00000   90.00000  2.17%   117  364s
  1002   393 infeasible   20        92.00000   90.00000  2.17%   110  367s
  1140   421   90.00000   16  197   92.00000   90.00000  2.17%   101  387s
  1204   455   90.00000   17  192   92.00000   90.00000  2.17%   102  412s
  1282   552   90.00000   17  188   92.00000   90.00000  2.17%  97.9  420s
  1488   678 infeasible   21        92.00000   90.00000  2.17%  90.7  425s
  1970  1051   91.00000   32  266   92.00000   90.00000  2.17%  76.0  430s
  2922  1528   91.00000   35   11   92.00000   90.00000  2.17%  58.3  476s
H 2923  1452                      91.0000000   90.00000  1.10%  58.3  477s

Cutting planes:
  Gomory: 1
  Cover: 11
  Implied bound: 4
  Projected implied bound: 6
  MIR: 3
  Flow cover: 19
  RLT: 1

Explored 2924 nodes (267140 simplex iterations) in 478.22 seconds (34.47 work units)
Thread count was 32 (of 32 available processors)

Solution count 10: 91 92 93 ... 104

Optimal solution found (tolerance 1.00e-04)
Best objective 9.100000000000e+01, best bound 9.100000000000e+01, gap 0.0000%

Wrote result file 'RCPSP_1284.sol'

